901524
901524
901524
901524
901524
901524
901524
901524
893468
889742
889742
889742
883832
883832
883832
878273
878273
869409
869409
861190
852745
852745
852745
840834
840834
840834
840834
826559
821438
821438
821438
819870
815701
805294
805294
805294
805294
805294
794747
785320
785320
785320
779771
779771
779771
779771
779167
778542
768431
765633
760297
760297
760297
760297
760297
741644
741644
739938
737658
736484
736484
722241
722241
722241
722241
722241
722241
722241
722241
722241
722241
722241
722241
719405
718230
716569
716569
716052
711519
704725
704725
704725
701598
692995
692995
692995
692995
692995
692995
692995
687805
687393
686093
680341
680341
680341
680341
671365
671365
671365
